12271
0 1 0 0 0 1 1 1 1 1 1 0 1 0 0 1 0 0 0 0 
5 5 5 5 5 6 6 5 7 7 7 7 7 7 7 7 7 12 7 12 12 7 15 1 12 9 9 9 9 9 9 9 9 15 5 6 5 6 6 5 6 5 5 5 5 5 7 12 12 8 15 1 7 8 6 15 7 1 1 6 6 15 15 15 7 12 15 6 10 6 15 15 6 1 1 15 12 6 6 8 10 1 1 15 15 7 1 6 15 1 8 8 15 15 15 8 7 10 7 5 
